27 69 1 30 51 9 35 34 3 77 
57 42 43 15 41 22 75 74 73 2 58 
53 40 
81 71 65 66 20 70 
62 11 64 49 19 48 7 52 
96 99 61 16 91 85 93 59 94 
60 83 45 84 17 5 
82 47 36 46 8 18 89 
28 76 54 55 25 26 
21 72 39 23 67 56 4 
95 92 44 86 38 14 100 37 98 
6 87 97 13 
50 33 79 78 29 24 68 80 12 
88 63 90 32 10 31 
